
Gurobi 9.1.2 (win64) logging started Tue Dec  7 10:41:06 2021

Gurobi Optimizer version 9.1.2 build v9.1.2rc0 (win64)
Thread count: 8 physical cores, 8 logical processors, using up to 8 threads
Optimize a model with 1 rows, 47 columns and 46 nonzeros
Model fingerprint: 0x6fd2b619
Variable types: 1 continuous, 46 integer (46 binary)
Coefficient statistics:
  Matrix range     [1e+00, 1e+01]
  Objective range  [1e+00, 1e+00]
  Bounds range     [3e+00, 3e+00]
  RHS range        [1e+01, 1e+01]
Presolve time: 0.00s
Presolved: 1 rows, 47 columns, 46 nonzeros
Variable types: 1 continuous, 46 integer (46 binary)

Root simplex log...

Iteration    Objective       Primal Inf.    Dual Inf.      Time
       0   -2.7664245e+00   7.995253e-02   0.000000e+00     15s
       3   -2.7664245e+00   0.000000e+00   0.000000e+00     15s

Root relaxation: objective -2.766425e+00, 3 iterations, 0.00 seconds

    Nodes    |    Current Node    |     Objective Bounds      |     Work
 Expl Unexpl |  Obj  Depth IntInf | Incumbent    BestBd   Gap | It/Node Time

*    0     0               0      -2.7664245   -2.76642  0.00%     -   14s

Cutting planes:
  Lazy constraints: 1

Explored 0 nodes (3 simplex iterations) in 14.92 seconds
Thread count was 8 (of 8 available processors)

Solution count 1: -2.76642 
No other solutions better than -2.76642

Optimal solution found (tolerance 1.00e-04)
Best objective -2.766424506424e+00, best bound -2.766424506424e+00, gap 0.0000%

User-callback calls 67, time in user-callback 18.62 sec
